HFSDDW
15	8	4
0	43	1	35	2	44	3	11
0	38	1	63	2	70	3	71
0	19	1	39	2	40	3	4
0	56	1	57	2	66	3	41
0	65	1	64	2	18	3	23
0	81	1	57	2	87	3	50
0	33	1	82	2	42	3	50
0	14	1	69	2	73	3	84
0	91	1	62	2	36	3	89
0	75	1	80	2	85	3	65
0	73	1	26	2	36	3	10
0	57	1	5	2	25	3	13
0	61	1	35	2	97	3	64
0	17	1	73	2	59	3	85
0	47	1	94	2	78	3	56
LBCmax: 505
RELDUE
-1	215	6	2
-1	210	8	9
-1	327	3	6
-1	302	3	9
-1	350	8	7
-1	317	1	7
-1	187	2	1
-1	437	5	4
-1	217	8	1
-1	386	3	4
-1	351	5	7
-1	409	8	4
-1	391	1	9
-1	309	3	9
-1	301	8	7
DDW
211	219
191	229
304	350
293	311
346	354
295	339
174	200
433	441
206	228
347	425
316	386
397	421
360	422
284	334
283	319
